%chk=urea.smd.h2o_M062X_6-31pGd.chk
\# M062X/Gen 6D SCF=Tight INT(grid=ultrafine)


0 1
C       -0.51031101      1.21554804     -0.35156301
N       -1.65851295      1.78858995     -0.80148298
O        0.58277398      1.40549505     -0.91794401
H       -1.63281798      2.17102599     -1.73831403
H       -2.55485606      1.44814396     -0.47446799
N       -0.60475999      0.49744299      0.79913402
H       -1.50855696      0.16801800      1.11675596
H        0.19666000     -0.07136400      1.04149306

@/home/507/lxw507/Basis/6-31pGd.gbs/N


